18 11 20
24 20 17
9 7 24
12 39 22
40 44 12
12 10 40
33 40 44
5 11 8
1 4 27
29 38 19
13 7 30
35 30 49
1 39 7
25 2 47
48 41 43
9 4 2
49 37 42
42 41 2
1 44 7
30 24 45
48 36 3
29 20 33
29 23 21
36 47 22
34 44 14
26 4 20
30 4 6
21 47 48
24 48 41
31 27 14
27 26 2
29 5 21
13 33 43
35 20 41
6 4 36
22 31 40
41 10 45
48 30 42
45 6 41
36 36 17
1 14 44
2 44 48
25 7 33
17 41 2
10 49 7
47 22 40
38 12 49
33 11 31
24 5 36
14 42 23
